
Gurobi 9.1.2 (linux64) logging started Wed Aug  9 03:12:40 2023

Changed value of parameter LogFile to max-ls_r=('2', '4').log
   Prev:   Default: 
Changed value of parameter MIPFocus to 1
   Prev: 0  Min: 0  Max: 3  Default: 0
Changed value of parameter Threads to 32
   Prev: 0  Min: 0  Max: 1024  Default: 0
Changed value of parameter TimeLimit to 3600.0
   Prev: inf  Min: 0.0  Max: inf  Default: inf
Warning: variable name "X[('6', '6'),('7', '6')]" has a space
Warning: constraint name "flow-constr-t0-v('6', '3')" has a space
Warning: to let Gurobi read it back, use rlp format
Gurobi Optimizer version 9.1.2 build v9.1.2rc0 (linux64)
Thread count: 16 physical cores, 32 logical processors, using up to 32 threads
Optimize a model with 2931 rows, 2688 columns and 10256 nonzeros
Model fingerprint: 0x0eb0f4da
Variable types: 256 continuous, 2432 integer (2432 binary)
Coefficient statistics:
  Matrix range     [1e+00, 7e+04]
  Objective range  [2e-01, 2e-01]
  Bounds range     [1e+00, 3e+04]
  RHS range        [1e+00, 7e+04]
Presolve removed 407 rows and 416 columns
Presolve time: 0.05s
Presolved: 2524 rows, 2272 columns, 17149 nonzeros
Variable types: 256 continuous, 2016 integer (2016 binary)
Found heuristic solution: objective 398.0000000

Root relaxation: objective 6.400000e+01, 143 iterations, 0.00 seconds

    Nodes    |    Current Node    |     Objective Bounds      |     Work
 Expl Unexpl |  Obj  Depth IntInf | Incumbent    BestBd   Gap | It/Node Time

     0     0   64.00000    0   30  398.00000   64.00000  83.9%     -    0s
H    0     0                     382.7500000   64.00000  83.3%     -    0s
H    0     0                     375.2500000   64.00000  82.9%     -    0s
H    0     0                      88.6250000   64.00000  27.8%     -    0s
H    0     0                      88.1250000   64.00000  27.4%     -    0s
     0     0   64.00000    0   54   88.12500   64.00000  27.4%     -    0s
H    0     0                      87.2500000   64.00000  26.6%     -    0s
     0     0   64.00000    0   58   87.25000   64.00000  26.6%     -    0s
     0     0   64.00000    0   26   87.25000   64.00000  26.6%     -    0s
H    0     0                      86.0000000   64.00000  25.6%     -    0s
     0     0   64.00000    0   30   86.00000   64.00000  25.6%     -    0s
H    0     0                      85.8333333   64.00000  25.4%     -    0s
     0     0   64.00000    0   22   85.83333   64.00000  25.4%     -    0s
     0     0   64.00000    0   39   85.83333   64.00000  25.4%     -    0s
     0     0   64.00000    0   20   85.83333   64.00000  25.4%     -    0s
H    0     0                      81.7500000   64.00000  21.7%     -    0s
H    0     0                      81.2500000   64.00000  21.2%     -    0s
     0     0   64.00000    0   27   81.25000   64.00000  21.2%     -    0s
     0     0   64.00000    0   22   81.25000   64.00000  21.2%     -    0s
H    0     0                      71.0000000   64.00000  9.86%     -    0s
H    0     0                      69.0000000   64.00000  7.25%     -    1s
     0     2   64.00000    0   20   69.00000   64.00000  7.25%     -    1s
H   31    64                      68.5000000   64.00000  6.57%  21.9    1s
H   39    64                      68.2500000   64.00000  6.23%  17.7    1s
H   95   128                      68.0000000   64.00000  5.88%   9.8    3s
H   96   128                      67.5833333   64.00000  5.30%   9.7    3s
H   97   128                      66.7500000   64.00000  4.12%   9.6    3s
H  111   128                      66.0000000   64.00000  3.03%   8.8    3s
   246   279   64.00000   12   33   66.00000   64.00000  3.03%   5.3    5s
H  785  1620                      64.8333333   64.00000  1.29%   5.9    6s
H 1685  2568                      64.0000000   64.00000  0.00%   4.9    8s

Cutting planes:
  Cover: 7
  Implied bound: 16
  Clique: 3
  MIR: 4
  Flow cover: 15
  RLT: 19
  Relax-and-lift: 1

Explored 2891 nodes (20595 simplex iterations) in 8.39 seconds
Thread count was 32 (of 32 available processors)

Solution count 10: 64 64.8333 66 ... 71

Optimal solution found (tolerance 1.00e-04)
Best objective 6.399999999995e+01, best bound 6.399999999995e+01, gap 0.0000%
